data;


param d:= 100;
param r:=5;
param p:=0.700000;
param M:=1000;
param U:=
         1         1       -3.277221e-01
         2         1       -9.240202e-01
         3         1        1.433096e+00
         4         1        2.607559e-01
         5         1       -1.289954e-01
         6         1        1.003007e+00
         7         1       -1.231700e+00
         8         1       -7.569526e-01
         9         1       -2.317899e+00
        10         1        7.562445e-01
        11         1        8.672204e-01
        12         1       -4.026284e-01
        13         1        4.018917e-01
        14         1       -6.312694e-01
        15         1       -2.787568e-01
        16         1       -1.128424e+00
        17         1        1.169212e+00
        18         1       -4.953632e-01
        19         1       -2.555740e-01
        20         1       -2.041719e+00
        21         1       -3.130282e-01
        22         1       -1.187643e+00
        23         1       -1.436168e+00
        24         1        1.233231e+00
        25         1        7.852346e-01
        26         1        1.637598e+00
        27         1       -1.405251e+00
        28         1       -4.625717e-02
        29         1        1.825510e+00
        30         1        1.100107e+00
        31         1       -1.833592e+00
        32         1       -1.587321e+00
        33         1       -6.760841e-01
        34         1        4.847291e-01
        35         1        2.893700e-01
        36         1       -7.752381e-01
        37         1       -6.365256e-01
        38         1        4.633492e-01
        39         1       -2.171338e-01
        40         1       -4.853119e-01
        41         1       -7.147348e-01
        42         1        1.957993e-01
        43         1        1.983646e-01
        44         1        2.174398e-01
        45         1       -5.112942e-01
        46         1       -4.042167e-01
        47         1       -6.008797e-01
        48         1       -1.229654e+00
        49         1        6.460511e-02
        50         1        9.491231e-01
        51         1        1.465015e+00
        52         1        5.711285e-01
        53         1       -7.439808e-01
        54         1       -9.205297e-01
        55         1       -8.051043e-01
        56         1        1.920135e+00
        57         1       -2.669961e-01
        58         1       -3.150253e-01
        59         1        7.971846e-01
        60         1        3.128071e-01
        61         1       -1.774003e+00
        62         1        1.028268e+00
        63         1        1.148628e+00
        64         1        1.758389e+00
        65         1        1.410647e+00
        66         1       -7.776209e-02
        67         1        7.127807e-02
        68         1       -2.112448e-01
        69         1       -6.751244e-01
        70         1        7.853341e-01
        71         1       -1.503682e+00
        72         1        1.746499e-01
        73         1        1.842233e+00
        74         1       -1.162474e-01
        75         1        2.995485e-01
        76         1        3.039464e-01
        77         1        8.950583e-01
        78         1        8.012702e-01
        79         1        1.385189e+00
        80         1       -2.783836e-01
        81         1       -2.400046e+00
        82         1        6.236050e-01
        83         1       -1.204208e+00
        84         1        3.062191e-01
        85         1        2.415457e-01
        86         1        1.537639e+00
        87         1       -1.364437e-02
        88         1        1.240457e+00
        89         1       -1.067974e+00
        90         1        5.618903e-01
        91         1       -5.819472e-01
        92         1        2.473330e-01
        93         1       -1.907356e+00
        94         1        2.502660e-02
        95         1       -9.589500e-01
        96         1        4.382265e-01
        97         1       -9.441995e-02
        98         1       -2.890463e-01
        99         1        6.786105e-01
       100         1       -7.496692e-01
         1         2       -8.390650e-01
         2         2       -9.375145e-01
         3         2       -3.064388e-01
         4         2        4.018023e-01
         5         2        2.435088e-01
         6         2        1.467840e+00
         7         2       -1.141151e+00
         8         2        1.653343e+00
         9         2        4.608645e-01
        10         2       -1.396916e+00
        11         2        1.625402e+00
        12         2        6.986523e-01
        13         2       -6.049227e-01
        14         2        3.747633e-01
        15         2       -1.716713e+00
        16         2       -1.130507e-01
        17         2       -1.045901e+00
        18         2       -3.776838e-01
        19         2        4.431472e-01
        20         2       -8.209857e-01
        21         2       -2.014884e+00
        22         2        3.441643e-01
        23         2        2.488411e+00
        24         2        4.310035e-01
        25         2        3.534730e-01
        26         2       -5.201341e-01
        27         2       -9.196482e-01
        28         2        1.068647e+00
        29         2       -1.376126e-01
        30         2        2.218911e-01
        31         2       -1.860805e-01
        32         2        8.208795e-01
        33         2       -1.403816e-01
        34         2        9.399522e-02
        35         2        1.354268e+00
        36         2        2.685760e-01
        37         2       -1.980859e+00
        38         2       -7.055133e-01
        39         2       -3.759856e-02
        40         2        3.966044e-01
        41         2        8.058216e-01
        42         2       -3.562980e-01
        43         2       -8.348869e-02
        44         2       -1.300874e+00
        45         2       -1.407343e-01
        46         2       -5.308444e-01
        47         2       -8.348418e-02
        48         2        7.624859e-01
        49         2        2.119730e-02
        50         2        8.084111e-02
        51         2       -1.267873e-01
        52         2       -1.709437e+00
        53         2       -1.222447e+00
        54         2       -2.446474e-01
        55         2        4.454886e-01
        56         2        5.755910e-01
        57         2        1.823667e-01
        58         2        2.899184e-01
        59         2       -1.372545e-01
        60         2        5.368305e-01
        61         2       -5.670446e-01
        62         2        9.232726e-01
        63         2       -1.307406e-01
        64         2        8.417125e-01
        65         2       -1.251782e-01
        66         2        1.593192e+00
        67         2        4.886711e-01
        68         2        3.387480e-01
        69         2       -2.917495e-01
        70         2        8.653344e-01
        71         2       -8.530663e-01
        72         2       -7.818887e-02
        73         2        5.946268e-01
        74         2       -1.105480e+00
        75         2       -1.271224e+00
        76         2        4.923228e-01
        77         2        9.834854e-02
        78         2        1.255895e+00
        79         2       -7.897386e-02
        80         2        1.319388e-01
        81         2        1.085689e+00
        82         2       -2.037395e+00
        83         2        5.176011e-01
        84         2       -3.040112e-01
        85         2       -3.276596e-01
        86         2        1.043573e+00
        87         2       -6.416211e-01
        88         2        1.134055e+00
        89         2        1.304131e+00
        90         2       -3.881708e-01
        91         2        4.317018e-01
        92         2        5.695072e-01
        93         2       -1.244511e+00
        94         2       -1.423075e+00
        95         2       -5.378311e-02
        96         2        3.738523e-01
        97         2       -1.690900e+00
        98         2       -1.217924e+00
        99         2       -1.030987e+00
       100         2       -4.299122e-01
         1         3        3.444358e-01
         2         3        3.904930e-01
         3         3       -9.700970e-02
         4         3       -1.634759e+00
         5         3        1.349934e+00
         6         3        1.161349e-01
         7         3       -1.884666e+00
         8         3        1.037265e+00
         9         3       -5.248457e-01
        10         3       -3.071815e-01
        11         3       -6.482791e-01
        12         3        8.214185e-02
        13         3       -4.785801e-02
        14         3       -9.068752e-01
        15         3        8.378810e-01
        16         3       -3.391496e-01
        17         3       -2.675513e-01
        18         3        2.010802e+00
        19         3       -1.903351e-01
        20         3        1.263665e+00
        21         3       -1.297300e-01
        22         3       -4.613219e-01
        23         3        1.274303e+00
        24         3       -1.140996e+00
        25         3       -2.204507e-01
        26         3       -4.283322e-02
        27         3       -4.053395e-01
        28         3       -1.421200e+00
        29         3       -1.322882e-01
        30         3       -4.420017e-01
        31         3        5.711242e-01
        32         3       -1.471081e+00
        33         3       -1.043105e+00
        34         3        5.089623e-01
        35         3       -3.600680e-01
        36         3        1.122620e+00
        37         3        5.722699e-01
        38         3       -1.652931e-01
        39         3       -8.399241e-01
        40         3        2.530122e-01
        41         3        4.786992e-01
        42         3        1.926801e-01
        43         3       -1.491592e+00
        44         3       -9.199440e-01
        45         3        3.578691e-01
        46         3        2.629177e-01
        47         3       -1.285776e+00
        48         3       -4.097363e-01
        49         3       -4.539899e-01
        50         3       -1.511267e+00
        51         3       -5.659785e-01
        52         3       -2.404756e-01
        53         3        5.530707e-01
        54         3       -3.208091e-01
        55         3        1.208703e+00
        56         3        9.857568e-02
        57         3       -2.514887e+00
        58         3       -4.753041e-01
        59         3       -2.754852e-02
        60         3        9.127329e-01
        61         3        1.003689e+00
        62         3       -9.973807e-02
        63         3       -1.086545e+00
        64         3       -2.071511e+00
        65         3       -1.357435e+00
        66         3       -5.408526e-01
        67         3       -1.155156e+00
        68         3       -8.752313e-01
        69         3        1.516292e-01
        70         3        1.240141e+00
        71         3        9.071339e-01
        72         3       -1.066010e+00
        73         3       -3.065413e-02
        74         3        1.660969e+00
        75         3       -1.171081e+00
        76         3        8.937773e-01
        77         3       -2.292208e+00
        78         3       -1.432311e+00
        79         3       -5.324985e-01
        80         3        4.392367e-01
        81         3       -2.119896e+00
        82         3        4.701248e-01
        83         3        1.024047e+00
        84         3        6.794208e-01
        85         3       -4.853695e-01
        86         3       -2.811984e-01
        87         3       -1.065626e-02
        88         3       -1.134016e-01
        89         3       -3.392444e-01
        90         3        1.099645e+00
        91         3       -1.438320e-01
        92         3       -6.537570e-01
        93         3       -7.613315e-01
        94         3        8.506651e-01
        95         3        1.507900e-01
        96         3       -2.557757e-01
        97         3        9.041334e-02
        98         3        5.364780e-01
        99         3        9.562202e-02
       100         3       -1.521692e+00
         1         4        5.536236e-02
         2         4       -2.837764e+00
         3         4       -2.055440e-01
         4         4        4.056029e-01
         5         4        8.405971e-01
         6         4        1.095875e+00
         7         4        5.218767e-01
         8         4        6.776319e-01
         9         4       -1.881116e-01
        10         4        1.213864e-01
        11         4       -8.342691e-01
        12         4       -2.619241e+00
        13         4       -2.161619e-01
        14         4       -4.331045e-01
        15         4       -1.867120e+00
        16         4       -1.065942e+00
        17         4        7.352298e-01
        18         4        3.466947e-01
        19         4        5.684051e-01
        20         4       -4.865942e-01
        21         4        1.535752e+00
        22         4        8.595046e-01
        23         4        7.365753e-01
        24         4        5.307285e-01
        25         4       -2.179054e-01
        26         4       -5.917747e-01
        27         4        6.262234e-02
        28         4       -5.026120e-01
        29         4       -1.255597e-01
        30         4        1.424263e+00
        31         4       -2.481318e-01
        32         4        6.473323e-01
        33         4       -6.660454e-01
        34         4       -9.942657e-02
        35         4       -1.227945e-01
        36         4       -1.214932e-01
        37         4        1.718095e+00
        38         4        1.269746e+00
        39         4        1.859672e+00
        40         4       -1.231525e+00
        41         4        1.342865e+00
        42         4        7.660242e-01
        43         4       -2.123537e+00
        44         4        2.835592e+00
        45         4        1.477636e-01
        46         4       -8.655519e-01
        47         4       -3.977908e-01
        48         4        1.165231e+00
        49         4       -6.254522e-01
        50         4       -1.831672e+00
        51         4       -5.140841e-01
        52         4       -2.081291e-01
        53         4        6.542793e-02
        54         4        2.860630e-01
        55         4       -1.420194e+00
        56         4       -1.978197e+00
        57         4        7.231963e-01
        58         4       -2.579567e-02
        59         4        8.682472e-01
        60         4        2.646649e-01
        61         4       -1.917337e+00
        62         4       -9.407500e-01
        63         4        4.261461e-01
        64         4        1.064986e+00
        65         4       -8.600705e-01
        66         4       -1.182519e+00
        67         4       -1.971596e-01
        68         4        8.904325e-01
        69         4        8.445152e-01
        70         4        1.093487e+00
        71         4       -1.487047e+00
        72         4        5.971436e-01
        73         4       -2.477065e-01
        74         4        4.445246e-01
        75         4        1.345466e+00
        76         4       -7.461104e-01
        77         4        3.537039e-01
        78         4       -4.469369e-01
        79         4       -6.589448e-01
        80         4        7.165878e-01
        81         4        2.634800e+00
        82         4        7.603919e-01
        83         4        9.699028e-01
        84         4        1.647129e-01
        85         4        2.586436e-01
        86         4       -5.398440e-01
        87         4       -3.511527e-01
        88         4       -4.838311e-01
        89         4        7.242047e-01
        90         4        1.903764e+00
        91         4       -8.031048e-01
        92         4       -7.922370e-01
        93         4        6.824199e-01
        94         4        7.923673e-02
        95         4        1.213737e+00
        96         4        4.080783e-01
        97         4       -1.718023e+00
        98         4        7.958884e-01
        99         4       -2.049098e-01
       100         4       -9.298957e-01
         1         5       -1.349100e-01
         2         5       -1.206210e-01
         3         5       -2.240006e+00
         4         5       -2.369089e+00
         5         5        2.374361e-01
         6         5       -2.342806e+00
         7         5       -6.510406e-02
         8         5       -1.614094e-01
         9         5        2.321699e-01
        10         5       -5.287547e-01
        11         5       -2.402507e+00
        12         5       -1.369977e+00
        13         5       -1.091558e+00
        14         5        1.880812e-01
        15         5        3.911847e-01
        16         5        1.907211e-01
        17         5        5.193425e-01
        18         5       -1.320658e+00
        19         5       -5.684207e-02
        20         5        3.558050e-01
        21         5       -1.170182e+00
        22         5       -3.470365e-01
        23         5        2.057385e+00
        24         5       -9.164762e-01
        25         5       -1.918528e-01
        26         5        2.010016e-02
        27         5       -1.465790e+00
        28         5        1.833785e+00
        29         5       -4.990521e-01
        30         5        1.591324e+00
        31         5        8.082046e-01
        32         5       -1.283734e-01
        33         5        4.231540e-01
        34         5       -1.054655e+00
        35         5        2.123514e+00
        36         5        5.471227e-01
        37         5        3.168356e-01
        38         5       -2.658652e-01
        39         5       -6.319875e-01
        40         5       -7.638809e-02
        41         5       -6.247937e-01
        42         5        9.128174e-01
        43         5        4.602734e-01
        44         5        2.560288e-01
        45         5        6.671367e-01
        46         5        1.660622e+00
        47         5       -9.760167e-02
        48         5       -6.271912e-03
        49         5        9.466234e-03
        50         5        4.231068e-01
        51         5       -1.444421e+00
        52         5       -1.990415e-01
        53         5        8.885599e-01
        54         5       -1.033311e+00
        55         5        4.800509e-01
        56         5        3.993139e-01
        57         5        1.504799e+00
        58         5        4.651526e-01
        59         5       -1.701877e+00
        60         5       -1.933169e+00
        61         5       -8.104831e-01
        62         5        8.675910e-01
        63         5        9.200443e-01
        64         5        1.208504e+00
        65         5        4.589426e-01
        66         5        9.886205e-01
        67         5       -7.284156e-01
        68         5       -1.501088e+00
        69         5       -8.250459e-02
        70         5        2.349836e+00
        71         5        1.537584e+00
        72         5       -2.487462e+00
        73         5        4.687705e-01
        74         5        6.622477e-01
        75         5       -1.844347e-02
        76         5        1.124786e-01
        77         5       -8.831327e-01
        78         5       -3.986243e-01
        79         5       -1.215670e+00
        80         5       -9.203813e-01
        81         5        3.380059e-01
        82         5        1.941868e+00
        83         5        1.997460e+00
        84         5        1.545326e+00
        85         5        7.257174e-02
        86         5        4.380533e-01
        87         5        8.358793e-02
        88         5       -5.598501e-01
        89         5        1.922457e-01
        90         5        6.781887e-01
        91         5       -3.163633e+00
        92         5        2.544923e+00
        93         5       -3.550146e-01
        94         5        7.003920e-01
        95         5        3.045561e-01
        96         5       -9.749861e-02
        97         5        7.711989e-01
        98         5       -8.772846e-01
        99         5       -1.857710e+00
       100         5       -6.816354e-01
;

param theta:=
    1       -1.904044e-01
    2        4.173244e-03
    3        1.919510e+00
    4        7.753509e-01
    5        1.591888e-01
;
param X_true:=
    1        7.410761e-01
    2       -1.298211e+00
    3       -9.770921e-01
    4       -3.248771e+00
    5        3.306868e+00
    6        5.140357e-01
    7       -2.994600e+00
    8        2.641799e+00
    9       -6.735383e-01
   10       -7.293992e-01
   11       -2.431855e+00
   12       -2.010586e+00
   13       -5.120325e-01
   14       -1.925376e+00
   15        2.684000e-01
   16       -1.231802e+00
   17       -8.654990e-02
   18        4.010113e+00
   19        1.168161e-01
   20        2.488706e+00
   21        8.057872e-01
   22       -4.670845e-02
   23        3.629274e+00
   24       -2.157915e+00
   25       -7.711261e-01
   26       -8.514036e-01
   27       -6.999688e-01
   28       -2.812598e+00
   29       -7.781707e-01
   30        3.014764e-01
   31        1.380710e+00
   32       -2.037753e+00
   33       -2.322675e+00
   34        6.402559e-01
   35       -4.980166e-01
   36        2.296967e+00
   37        2.593763e+00
   38        5.329677e-01
   39       -2.295023e-01
   40       -3.871682e-01
   41        2.000703e+00
   42        1.071038e+00
   43       -4.473558e+00
   44        4.264659e-01
   45        1.003824e+00
   46        1.707178e-01
   47       -2.678347e+00
   48        3.528125e-01
   49       -1.367730e+00
   50       -4.434222e+00
   51       -1.994068e+00
   52       -7.711698e-01
   53        1.390031e+00
   54       -3.834497e-01
   55        1.451528e+00
   56       -1.646383e+00
   57       -3.975586e+00
   58       -7.966372e-01
   59        1.986530e-01
   60        1.592015e+00
   61        6.456072e-01
   62       -9.739601e-01
   63       -1.827230e+00
   64       -3.289448e+00
   65       -3.470049e+00
   66       -1.777831e+00
   67       -2.499053e+00
   68       -1.186413e+00
   69        1.059761e+00
   70        3.456960e+00
   71        1.115131e+00
   72       -2.012605e+00
   73       -5.240556e-01
   74        3.654334e+00
   75       -1.269841e+00
   76        1.099504e+00
   77       -4.436398e+00
   78       -3.307104e+00
   79       -1.991104e+00
   80        1.306120e+00
   81       -1.509957e+00
   82        1.673812e+00
   83        3.266807e+00
   84        1.620026e+00
   85       -7.660999e-01
   86       -1.176923e+00
   87       -2.800309e-01
   88       -9.134845e-01
   89        1.489825e-01
   90        3.583875e+00
   91       -1.289028e+00
   92       -1.508805e+00
   93       -6.314538e-01
   94        1.794743e+00
   95        1.460631e+00
   96       -2.718611e-01
   97       -1.024106e+00
   98        1.556608e+00
   99       -4.047092e-01
  100       -3.608083e+00
;
param X:=
    1        5.346387e-01
    2       -6.099248e-01
    3       -9.770921e-01
    4       -1.814647e+00
    5       -1.098304e+00
    6        5.140357e-01
    7        6.998325e-02
    8        2.641799e+00
    9        5.137044e-01
   10       -4.314981e-01
   11       -8.754939e-01
   12        9.216548e-01
   13       -7.196021e-01
   14       -1.053936e+00
   15        1.201368e+00
   16       -1.231802e+00
   17       -7.257958e-01
   18        3.298101e-01
   19        1.512282e+00
   20       -8.718061e-01
   21        1.840888e+00
   22       -4.670845e-02
   23       -1.893281e+00
   24       -1.537233e+00
   25        4.449927e-01
   26        8.391162e-01
   27       -1.344622e-01
   28       -2.812598e+00
   29       -7.781707e-01
   30        3.014764e-01
   31        1.162643e-01
   32        1.510811e-01
   33        1.744479e+00
   34       -1.501381e-01
   35       -4.980166e-01
   36       -8.294852e-01
   37        2.593763e+00
   38        2.846024e-02
   39       -4.957694e-01
   40       -9.467363e-01
   41        2.000703e+00
   42        1.852510e+00
   43       -4.700020e-01
   44        4.264659e-01
   45        1.003824e+00
   46       -9.676635e-01
   47       -4.769610e-01
   48        3.528125e-01
   49        7.695088e-01
   50       -4.434222e+00
   51       -7.178594e-01
   52        3.543309e-01
   53       -6.665286e-01
   54        2.794762e-01
   55       -4.048111e-01
   56       -5.215707e-01
   57        2.132797e+00
   58       -6.914518e-01
   59       -2.025437e+00
   60        1.592015e+00
   61       -4.187306e-01
   62       -9.739601e-01
   63       -1.496293e+00
   64       -3.289448e+00
   65        4.562622e-01
   66       -1.777831e+00
   67       -2.499053e+00
   68        3.209229e-01
   69        1.059761e+00
   70        3.048145e+00
   71        1.191838e+00
   72       -1.838224e-01
   73       -5.240556e-01
   74       -3.010143e-01
   75       -6.559215e-01
   76       -2.079000e+00
   77       -7.455180e-01
   78        1.018397e+00
   79       -1.173977e+00
   80        4.796989e-01
   81       -1.509957e+00
   82        1.673812e+00
   83        3.266807e+00
   84       -5.612256e-01
   85        4.405221e-01
   86       -1.176923e+00
   87        3.601725e-02
   88        9.362700e-01
   89        1.489825e-01
   90       -1.919160e+00
   91       -6.293562e-01
   92       -4.226539e-02
   93       -2.571922e-01
   94        8.814225e-01
   95        1.460631e+00
   96       -2.718611e-01
   97       -1.024106e+00
   98       -3.058805e-01
   99        1.783138e-01
  100       -7.449230e-01
;
param outliervec:=
    1    1
    2    1
    3    0
    4    1
    5    1
    6    0
    7    1
    8    0
    9    1
   10    1
   11    1
   12    1
   13    1
   14    1
   15    1
   16    0
   17    1
   18    1
   19    1
   20    1
   21    1
   22    0
   23    1
   24    1
   25    1
   26    1
   27    1
   28    0
   29    0
   30    0
   31    1
   32    1
   33    1
   34    1
   35    0
   36    1
   37    0
   38    1
   39    1
   40    1
   41    0
   42    1
   43    1
   44    0
   45    0
   46    1
   47    1
   48    0
   49    1
   50    0
   51    1
   52    1
   53    1
   54    1
   55    1
   56    1
   57    1
   58    1
   59    1
   60    0
   61    1
   62    0
   63    1
   64    0
   65    1
   66    0
   67    0
   68    1
   69    0
   70    1
   71    1
   72    1
   73    0
   74    1
   75    1
   76    1
   77    1
   78    1
   79    1
   80    1
   81    0
   82    0
   83    0
   84    1
   85    1
   86    0
   87    1
   88    1
   89    0
   90    1
   91    1
   92    1
   93    1
   94    1
   95    0
   96    0
   97    0
   98    1
   99    1
  100    1
;